data/rand/rand_096.gr
p tdp 15 44
1 3
1 4
1 7
1 8
1 10
1 11
1 12
1 13
1 14
1 15
2 4
2 5
2 8
2 14
3 4
3 5
3 6
3 7
3 9
3 11
4 9
4 13
4 15
5 7
5 14
5 15
6 8
6 10
6 11
6 12
7 8
7 10
7 13
8 9
8 12
8 14
9 11
10 11
10 14
11 12
11 13
12 13
13 15
14 15
