solutions/best/rand/rand_096.sol
9
0
14
8
1
13
11
5
4
11
3
12
13
10
5
14
